NAME : rnd0_20.tsp
TYPE : TSP
DIMENSION : 20
EDGE_WEIGHT_TYPE : EUC_2D
NODE_COORD_SECTION
1 970 833
2 640 354
3 615 342
4 390 78
5 315 940
6 241 64
7 481 121
8 752 212
9 862 642
10 540 680
11 160 686
12 420 753
13 906 330
14 636 124
15 977 858
16 897 810
17 37 353
18 872 956
19 719 746
20 808 498
